(set-logic ALL)
(declare-fun var0 () String)
(assert (str.in_re var0 (re.++ (re.* (re.union (re.+ (re.+ (re.+ (re.union (re.* (re.* (re.* (re.* (re.+ (re.+ (str.to_re "00"))))))) (re.* (re.+ (re.union (re.* (re.union (re.union (str.to_re "11") (str.to_re "2")) (re.union (str.to_re "3") (str.to_re "44")))) (re.* (re.union (re.+ (str.to_re "5")) (re.+ (str.to_re "666"))))))))))) (re.+ (re.union (re.union (re.* (re.* (re.* (re.* (re.union (re.union (re.union (str.to_re "77") (str.to_re "88")) (re.union (str.to_re "9") (str.to_re "aa"))) (re.union (re.union (str.to_re "b") (str.to_re "ccc")) (re.union (str.to_re "dd") (str.to_re "e")))))))) (re.* (re.+ (re.union (re.union (re.* (re.* (re.* (str.to_re "f")))) (re.* (re.+ (re.union (str.to_re "ggg") (str.to_re "hhh"))))) (re.union (re.* (re.union (re.union (str.to_re "i") (str.to_re "jj")) (re.union (str.to_re "kkk") (str.to_re "lll")))) (re.* (re.+ (re.+ (str.to_re "mmm"))))))))) (re.union (re.union (re.* (re.+ (re.+ (re.+ (re.union (re.* (str.to_re "nn")) (re.* (str.to_re "o"))))))) (re.* (re.+ (re.union (re.+ (re.union (re.* (str.to_re "p")) (re.* (str.to_re "qqq")))) (re.+ (re.+ (re.* (str.to_re "rrr")))))))) (re.union (re.* (re.union (re.* (re.* (re.* (re.* (str.to_re "sss"))))) (re.* (re.union (re.* (re.+ (str.to_re "tt"))) (re.* (re.* (str.to_re "uu"))))))) (re.* (re.+ (re.+ (re.union (re.* (re.+ (str.to_re "vvv"))) (re.* (re.* (str.to_re "w"))))))))))))) (re.+ (re.+ (re.union (re.* (re.union (re.* (re.* (re.* (re.* (re.union (re.* (re.+ (str.to_re "xxx"))) (re.* (re.union (str.to_re "yyy") (str.to_re "zzz")))))))) (re.* (re.* (re.union (re.union (re.union (re.union (re.* (str.to_re "A")) (re.* (str.to_re "BBB"))) (re.union (re.* (str.to_re "CC")) (re.* (str.to_re "DD")))) (re.union (re.+ (re.* (str.to_re "EEE"))) (re.+ (re.union (str.to_re "FF") (str.to_re "GG"))))) (re.union (re.+ (re.+ (re.* (str.to_re "HHH")))) (re.+ (re.union (re.* (str.to_re "II")) (re.* (str.to_re "JJJ")))))))))) (re.* (re.* (re.union (re.+ (re.+ (re.* (re.* (re.+ (re.union (str.to_re "K") (str.to_re "LL"))))))) (re.+ (re.* (re.+ (re.union (re.union (re.* (str.to_re "MMM")) (re.* (str.to_re "N"))) (re.union (re.+ (str.to_re "OOO")) (re.+ (str.to_re "PP"))))))))))))))))
(assert (<= 15 (str.len var0)))
(check-sat)